NAME : LPS-n5-m260
COMMENT : (Lartu-Peter-Santi Plot, instance 1060 out of 39200. 5 customers.)
TYPE : CVRP
DIMENSION : 5
EDGE_WEIGHT_TYPE : EUC_2D
CAPACITY : 87
NODE_COORD_SECTION
 1 98 10
 2 86 93
 3 49 61
 4 86 85
 5 33 76
DEMAND_SECTION
1 0
2 5
3 56
4 47
5 55
DEPOT_SECTION
 1
 -1
EOF
